(declare-datatypes (T1 T2 T3 T4 T5)
 ((Recv (mk-recv (match T1) (ep T2) (var T3) (event T4) (nearestwait T5)))))
(declare-datatypes (T1 T2 T3 T4)
((Send (mk-send (match T1) (ep T2) (value T3) (event T4)))))
(define-fun HB ((a Int) (b Int)) Bool
  (if(< a b)
 true
 false))

(define-fun MATCH ((r (Recv Int Int Int Int Int)) (s (Send Int Int Int Int))) Bool
(if(and (= (ep r) (ep s)) (= (var r) (value s))
(HB (event s) (nearestwait r)) (= (match r) (event s))
(= (match s) (event r)))
true
false
)
)

(declare-const T0_0 Int)
(declare-const A_0_0 Int)
(declare-const T1_0 Int)
(declare-const C_1_0 Int)
(declare-const T2_0 Int)
(declare-const T2_1 Int)
(declare-const T2_2 Int)
(declare-const T2_3 Int)
(declare-const T2_4 Int)
(declare-const T2_5 Int)
(declare-const T2_6 Int)
(declare-const T2_7 Int)
(declare-const T2_8 Int)
(declare-const T2_9 Int)
(declare-const T2_10 Int)
(declare-const T2_11 Int)
(declare-const T2_12 Int)
(declare-const T2_13 Int)
(declare-const T2_14 Int)
(declare-const T2_15 Int)
(declare-const T2_16 Int)
(declare-const T2_17 Int)
(declare-const T2_18 Int)
(declare-const T2_19 Int)
(declare-const T2_20 Int)
(declare-const T2_21 Int)
(declare-const T2_22 Int)
(declare-const T2_23 Int)
(declare-const T2_24 Int)
(declare-const T2_25 Int)
(declare-const T2_26 Int)
(declare-const T2_27 Int)
(declare-const T2_28 Int)
(declare-const T2_29 Int)
(declare-const T2_30 Int)
(declare-const T2_31 Int)
(declare-const T0_1 Int)
(declare-const T0_2 Int)
(declare-const a_0_0 Int)
(declare-const T0_3 Int)
(declare-const B_0_0 Int)
(declare-const T0_4 Int)
(declare-const T0_5 Int)
(declare-const b_0_0 Int)
(declare-const T0_6 Int)
(declare-const T0_7 Int)
(declare-const T0_8 Int)
(declare-const A_0_1 Int)
(declare-const T0_9 Int)
(declare-const T0_10 Int)
(declare-const a_0_1 Int)
(declare-const T0_11 Int)
(declare-const B_0_1 Int)
(declare-const T0_12 Int)
(declare-const T0_13 Int)
(declare-const b_0_1 Int)
(declare-const T0_14 Int)
(declare-const T0_15 Int)
(declare-const T0_16 Int)
(declare-const A_0_2 Int)
(declare-const T0_17 Int)
(declare-const T0_18 Int)
(declare-const a_0_2 Int)
(declare-const T0_19 Int)
(declare-const B_0_2 Int)
(declare-const T0_20 Int)
(declare-const T0_21 Int)
(declare-const b_0_2 Int)
(declare-const T0_22 Int)
(declare-const T0_23 Int)
(declare-const T0_24 Int)
(declare-const A_0_3 Int)
(declare-const T0_25 Int)
(declare-const T0_26 Int)
(declare-const a_0_3 Int)
(declare-const T0_27 Int)
(declare-const B_0_3 Int)
(declare-const T0_28 Int)
(declare-const T0_29 Int)
(declare-const b_0_3 Int)
(declare-const T0_30 Int)
(declare-const T0_31 Int)
(declare-const T0_32 Int)
(declare-const A_0_4 Int)
(declare-const T1_1 Int)
(declare-const T1_2 Int)
(declare-const T1_3 Int)
(declare-const T1_4 Int)
(declare-const C_1_1 Int)
(declare-const T1_5 Int)
(declare-const T1_6 Int)
(declare-const T1_7 Int)
(declare-const T1_8 Int)
(declare-const C_1_2 Int)
(declare-const T1_9 Int)
(declare-const T1_10 Int)
(declare-const T1_11 Int)
(declare-const T1_12 Int)
(declare-const C_1_3 Int)
(declare-const T1_13 Int)
(declare-const T1_14 Int)
(declare-const T1_15 Int)
(declare-const T1_16 Int)
(declare-const C_1_4 Int)
(declare-const T1_17 Int)
(declare-const T1_18 Int)
(declare-const T1_19 Int)
(declare-const T1_20 Int)
(declare-const C_1_5 Int)
(declare-const T1_21 Int)
(declare-const T1_22 Int)
(declare-const T1_23 Int)
(declare-const T1_24 Int)
(declare-const C_1_6 Int)
(declare-const T1_25 Int)
(declare-const T1_26 Int)
(declare-const T1_27 Int)
(declare-const T1_28 Int)
(declare-const C_1_7 Int)
(declare-const T1_29 Int)
(declare-const T1_30 Int)
(declare-const T1_31 Int)
(declare-const T0_33 Int)
(declare-const T0_34 Int)
(declare-const a_0_4 Int)
(declare-const T0_35 Int)
(declare-const B_0_4 Int)
(declare-const T0_36 Int)
(declare-const T0_37 Int)
(declare-const b_0_4 Int)
(declare-const T0_38 Int)
(declare-const T0_39 Int)
(declare-const T0_40 Int)
(declare-const A_0_5 Int)
(declare-const T0_41 Int)
(declare-const T0_42 Int)
(declare-const a_0_5 Int)
(declare-const T0_43 Int)
(declare-const B_0_5 Int)
(declare-const T0_44 Int)
(declare-const T0_45 Int)
(declare-const b_0_5 Int)
(declare-const T0_46 Int)
(declare-const T0_47 Int)
(declare-const T0_48 Int)
(declare-const A_0_6 Int)
(declare-const T0_49 Int)
(declare-const T0_50 Int)
(declare-const a_0_6 Int)
(declare-const T0_51 Int)
(declare-const B_0_6 Int)
(declare-const T0_52 Int)
(declare-const T0_53 Int)
(declare-const b_0_6 Int)
(declare-const T0_54 Int)
(declare-const T0_55 Int)
(declare-const T0_56 Int)
(declare-const A_0_7 Int)
(declare-const T0_57 Int)
(declare-const T0_58 Int)
(declare-const a_0_7 Int)
(declare-const T0_59 Int)
(declare-const B_0_7 Int)
(declare-const T0_60 Int)
(declare-const T0_61 Int)
(declare-const b_0_7 Int)
(declare-const T0_62 Int)
(declare-const T0_63 Int)

(declare-const recvT0_0 (Recv Int Int Int Int Int))
(assert (and (= (ep recvT0_0) 0) (= (event recvT0_0) T0_0) (= (var recvT0_0) A_0_0)))
(declare-const recvT1_0 (Recv Int Int Int Int Int))
(assert (and (= (ep recvT1_0) 1) (= (event recvT1_0) T1_0) (= (var recvT1_0) C_1_0)))
(declare-const sendT2_0 (Send Int Int Int Int))
(assert (and (= (ep sendT2_0) 0) (= (event sendT2_0) T2_0) (= (value sendT2_0) 4)))
(declare-const sendT2_2 (Send Int Int Int Int))
(assert (and (= (ep sendT2_2) 1) (= (event sendT2_2) T2_2) (= (value sendT2_2) 100)))
(declare-const sendT2_4 (Send Int Int Int Int))
(assert (and (= (ep sendT2_4) 0) (= (event sendT2_4) T2_4) (= (value sendT2_4) 4)))
(declare-const sendT2_6 (Send Int Int Int Int))
(assert (and (= (ep sendT2_6) 1) (= (event sendT2_6) T2_6) (= (value sendT2_6) 100)))
(declare-const sendT2_8 (Send Int Int Int Int))
(assert (and (= (ep sendT2_8) 0) (= (event sendT2_8) T2_8) (= (value sendT2_8) 4)))
(declare-const sendT2_10 (Send Int Int Int Int))
(assert (and (= (ep sendT2_10) 1) (= (event sendT2_10) T2_10) (= (value sendT2_10) 100)))
(declare-const sendT2_12 (Send Int Int Int Int))
(assert (and (= (ep sendT2_12) 0) (= (event sendT2_12) T2_12) (= (value sendT2_12) 4)))
(declare-const sendT2_14 (Send Int Int Int Int))
(assert (and (= (ep sendT2_14) 1) (= (event sendT2_14) T2_14) (= (value sendT2_14) 100)))
(declare-const sendT2_16 (Send Int Int Int Int))
(assert (and (= (ep sendT2_16) 0) (= (event sendT2_16) T2_16) (= (value sendT2_16) 4)))
(declare-const sendT2_18 (Send Int Int Int Int))
(assert (and (= (ep sendT2_18) 1) (= (event sendT2_18) T2_18) (= (value sendT2_18) 100)))
(declare-const sendT2_20 (Send Int Int Int Int))
(assert (and (= (ep sendT2_20) 0) (= (event sendT2_20) T2_20) (= (value sendT2_20) 4)))
(declare-const sendT2_22 (Send Int Int Int Int))
(assert (and (= (ep sendT2_22) 1) (= (event sendT2_22) T2_22) (= (value sendT2_22) 100)))
(declare-const sendT2_24 (Send Int Int Int Int))
(assert (and (= (ep sendT2_24) 0) (= (event sendT2_24) T2_24) (= (value sendT2_24) 4)))
(declare-const sendT2_26 (Send Int Int Int Int))
(assert (and (= (ep sendT2_26) 1) (= (event sendT2_26) T2_26) (= (value sendT2_26) 100)))
(declare-const sendT2_28 (Send Int Int Int Int))
(assert (and (= (ep sendT2_28) 0) (= (event sendT2_28) T2_28) (= (value sendT2_28) 4)))
(declare-const sendT2_30 (Send Int Int Int Int))
(assert (and (= (ep sendT2_30) 1) (= (event sendT2_30) T2_30) (= (value sendT2_30) 100)))
(assert (= (nearestwait recvT0_0) T0_1))
(declare-const recvT0_3 (Recv Int Int Int Int Int))
(assert (and (= (ep recvT0_3) 0) (= (event recvT0_3) T0_3) (= (var recvT0_3) B_0_0)))
(assert (= (nearestwait recvT0_3) T0_4))
(declare-const recvT0_8 (Recv Int Int Int Int Int))
(assert (and (= (ep recvT0_8) 0) (= (event recvT0_8) T0_8) (= (var recvT0_8) A_0_1)))
(assert (= (nearestwait recvT0_8) T0_9))
(declare-const recvT0_11 (Recv Int Int Int Int Int))
(assert (and (= (ep recvT0_11) 0) (= (event recvT0_11) T0_11) (= (var recvT0_11) B_0_1)))
(assert (= (nearestwait recvT0_11) T0_12))
(declare-const recvT0_16 (Recv Int Int Int Int Int))
(assert (and (= (ep recvT0_16) 0) (= (event recvT0_16) T0_16) (= (var recvT0_16) A_0_2)))
(assert (= (nearestwait recvT0_16) T0_17))
(declare-const recvT0_19 (Recv Int Int Int Int Int))
(assert (and (= (ep recvT0_19) 0) (= (event recvT0_19) T0_19) (= (var recvT0_19) B_0_2)))
(assert (= (nearestwait recvT0_19) T0_20))
(declare-const recvT0_24 (Recv Int Int Int Int Int))
(assert (and (= (ep recvT0_24) 0) (= (event recvT0_24) T0_24) (= (var recvT0_24) A_0_3)))
(assert (= (nearestwait recvT0_24) T0_25))
(declare-const recvT0_27 (Recv Int Int Int Int Int))
(assert (and (= (ep recvT0_27) 0) (= (event recvT0_27) T0_27) (= (var recvT0_27) B_0_3)))
(assert (= (nearestwait recvT0_27) T0_28))
(declare-const recvT0_32 (Recv Int Int Int Int Int))
(assert (and (= (ep recvT0_32) 0) (= (event recvT0_32) T0_32) (= (var recvT0_32) A_0_4)))
(assert (= (nearestwait recvT1_0) T1_1))
(declare-const sendT1_2 (Send Int Int Int Int))
(assert (and (= (ep sendT1_2) 0) (= (event sendT1_2) T1_2) (= (value sendT1_2) 1)))
(declare-const recvT1_4 (Recv Int Int Int Int Int))
(assert (and (= (ep recvT1_4) 1) (= (event recvT1_4) T1_4) (= (var recvT1_4) C_1_1)))
(assert (= (nearestwait recvT1_4) T1_5))
(declare-const sendT1_6 (Send Int Int Int Int))
(assert (and (= (ep sendT1_6) 0) (= (event sendT1_6) T1_6) (= (value sendT1_6) 1)))
(declare-const recvT1_8 (Recv Int Int Int Int Int))
(assert (and (= (ep recvT1_8) 1) (= (event recvT1_8) T1_8) (= (var recvT1_8) C_1_2)))
(assert (= (nearestwait recvT1_8) T1_9))
(declare-const sendT1_10 (Send Int Int Int Int))
(assert (and (= (ep sendT1_10) 0) (= (event sendT1_10) T1_10) (= (value sendT1_10) 1)))
(declare-const recvT1_12 (Recv Int Int Int Int Int))
(assert (and (= (ep recvT1_12) 1) (= (event recvT1_12) T1_12) (= (var recvT1_12) C_1_3)))
(assert (= (nearestwait recvT1_12) T1_13))
(declare-const sendT1_14 (Send Int Int Int Int))
(assert (and (= (ep sendT1_14) 0) (= (event sendT1_14) T1_14) (= (value sendT1_14) 1)))
(declare-const recvT1_16 (Recv Int Int Int Int Int))
(assert (and (= (ep recvT1_16) 1) (= (event recvT1_16) T1_16) (= (var recvT1_16) C_1_4)))
(assert (= (nearestwait recvT1_16) T1_17))
(declare-const sendT1_18 (Send Int Int Int Int))
(assert (and (= (ep sendT1_18) 0) (= (event sendT1_18) T1_18) (= (value sendT1_18) 1)))
(declare-const recvT1_20 (Recv Int Int Int Int Int))
(assert (and (= (ep recvT1_20) 1) (= (event recvT1_20) T1_20) (= (var recvT1_20) C_1_5)))
(assert (= (nearestwait recvT1_20) T1_21))
(declare-const sendT1_22 (Send Int Int Int Int))
(assert (and (= (ep sendT1_22) 0) (= (event sendT1_22) T1_22) (= (value sendT1_22) 1)))
(declare-const recvT1_24 (Recv Int Int Int Int Int))
(assert (and (= (ep recvT1_24) 1) (= (event recvT1_24) T1_24) (= (var recvT1_24) C_1_6)))
(assert (= (nearestwait recvT1_24) T1_25))
(declare-const sendT1_26 (Send Int Int Int Int))
(assert (and (= (ep sendT1_26) 0) (= (event sendT1_26) T1_26) (= (value sendT1_26) 1)))
(declare-const recvT1_28 (Recv Int Int Int Int Int))
(assert (and (= (ep recvT1_28) 1) (= (event recvT1_28) T1_28) (= (var recvT1_28) C_1_7)))
(assert (= (nearestwait recvT1_28) T1_29))
(declare-const sendT1_30 (Send Int Int Int Int))
(assert (and (= (ep sendT1_30) 0) (= (event sendT1_30) T1_30) (= (value sendT1_30) 1)))
(assert (= (nearestwait recvT0_32) T0_33))
(declare-const recvT0_35 (Recv Int Int Int Int Int))
(assert (and (= (ep recvT0_35) 0) (= (event recvT0_35) T0_35) (= (var recvT0_35) B_0_4)))
(assert (= (nearestwait recvT0_35) T0_36))
(declare-const recvT0_40 (Recv Int Int Int Int Int))
(assert (and (= (ep recvT0_40) 0) (= (event recvT0_40) T0_40) (= (var recvT0_40) A_0_5)))
(assert (= (nearestwait recvT0_40) T0_41))
(declare-const recvT0_43 (Recv Int Int Int Int Int))
(assert (and (= (ep recvT0_43) 0) (= (event recvT0_43) T0_43) (= (var recvT0_43) B_0_5)))
(assert (= (nearestwait recvT0_43) T0_44))
(declare-const recvT0_48 (Recv Int Int Int Int Int))
(assert (and (= (ep recvT0_48) 0) (= (event recvT0_48) T0_48) (= (var recvT0_48) A_0_6)))
(assert (= (nearestwait recvT0_48) T0_49))
(declare-const recvT0_51 (Recv Int Int Int Int Int))
(assert (and (= (ep recvT0_51) 0) (= (event recvT0_51) T0_51) (= (var recvT0_51) B_0_6)))
(assert (= (nearestwait recvT0_51) T0_52))
(declare-const recvT0_56 (Recv Int Int Int Int Int))
(assert (and (= (ep recvT0_56) 0) (= (event recvT0_56) T0_56) (= (var recvT0_56) A_0_7)))
(assert (= (nearestwait recvT0_56) T0_57))
(declare-const recvT0_59 (Recv Int Int Int Int Int))
(assert (and (= (ep recvT0_59) 0) (= (event recvT0_59) T0_59) (= (var recvT0_59) B_0_7)))
(assert (= (nearestwait recvT0_59) T0_60))

(assert (and
(HB T2_0 T2_4) (HB T2_2 T2_6) (HB T2_4 T2_8) (HB T2_6 T2_10) (HB T2_8 T2_12) (HB T2_10 T2_14) (HB T2_12 T2_16) (HB T2_14 T2_18) (HB T2_16 T2_20) (HB T2_18 T2_22) (HB T2_20 T2_24) (HB T2_22 T2_26) (HB T2_24 T2_28) (HB T2_26 T2_30) (HB T0_0 T0_1) (HB T0_0 T0_3) (HB T0_3 T0_4) (HB T0_3 T0_8) (HB T0_8 T0_9) (HB T0_8 T0_11) (HB T0_11 T0_12) (HB T0_11 T0_16) (HB T0_16 T0_17) (HB T0_16 T0_19) (HB T0_19 T0_20) (HB T0_19 T0_24) (HB T0_24 T0_25) (HB T0_24 T0_27) (HB T0_27 T0_28) (HB T0_27 T0_32) (HB T1_0 T1_1) (HB T1_0 T1_4) (HB T1_4 T1_5) (HB T1_2 T1_6) (HB T1_4 T1_8) (HB T1_8 T1_9) (HB T1_6 T1_10) (HB T1_8 T1_12) (HB T1_12 T1_13) (HB T1_10 T1_14) (HB T1_12 T1_16) (HB T1_16 T1_17) (HB T1_14 T1_18) (HB T1_16 T1_20) (HB T1_20 T1_21) (HB T1_18 T1_22) (HB T1_20 T1_24) (HB T1_24 T1_25) (HB T1_22 T1_26) (HB T1_24 T1_28) (HB T1_28 T1_29) (HB T1_26 T1_30) (HB T0_32 T0_33) (HB T0_32 T0_35) (HB T0_35 T0_36) (HB T0_35 T0_40) (HB T0_40 T0_41) (HB T0_40 T0_43) (HB T0_43 T0_44) (HB T0_43 T0_48) (HB T0_48 T0_49) (HB T0_48 T0_51) (HB T0_51 T0_52) (HB T0_51 T0_56) (HB T0_56 T0_57) (HB T0_56 T0_59) (HB T0_59 T0_60) ))


(assert (and
(or (MATCH recvT1_20 sendT2_22) )
(or (MATCH recvT1_8 sendT2_10) )
(or (MATCH recvT0_35 sendT1_6) (MATCH recvT0_35 sendT1_10) (MATCH recvT0_35 sendT1_14) (MATCH recvT0_35 sendT1_18) (MATCH recvT0_35 sendT1_22) (MATCH recvT0_35 sendT1_26) (MATCH recvT0_35 sendT1_30) (MATCH recvT0_35 sendT2_4) (MATCH recvT0_35 sendT2_8) (MATCH recvT0_35 sendT2_12) (MATCH recvT0_35 sendT2_16) (MATCH recvT0_35 sendT2_20) (MATCH recvT0_35 sendT2_24) (MATCH recvT0_35 sendT2_28) )
(or (MATCH recvT1_4 sendT2_6) )
(or (MATCH recvT0_32 sendT1_2) (MATCH recvT0_32 sendT1_6) (MATCH recvT0_32 sendT1_10) (MATCH recvT0_32 sendT1_14) (MATCH recvT0_32 sendT1_18) (MATCH recvT0_32 sendT1_22) (MATCH recvT0_32 sendT1_26) (MATCH recvT0_32 sendT1_30) (MATCH recvT0_32 sendT2_0) (MATCH recvT0_32 sendT2_4) (MATCH recvT0_32 sendT2_8) (MATCH recvT0_32 sendT2_12) (MATCH recvT0_32 sendT2_16) (MATCH recvT0_32 sendT2_20) (MATCH recvT0_32 sendT2_24) (MATCH recvT0_32 sendT2_28) )
(or (MATCH recvT1_0 sendT2_2) )
(or (MATCH recvT0_19 sendT1_2) (MATCH recvT0_19 sendT1_6) (MATCH recvT0_19 sendT1_10) (MATCH recvT0_19 sendT1_14) (MATCH recvT0_19 sendT1_18) (MATCH recvT0_19 sendT1_22) (MATCH recvT0_19 sendT2_0) (MATCH recvT0_19 sendT2_4) (MATCH recvT0_19 sendT2_8) (MATCH recvT0_19 sendT2_12) (MATCH recvT0_19 sendT2_16) (MATCH recvT0_19 sendT2_20) )
(or (MATCH recvT0_48 sendT1_18) (MATCH recvT0_48 sendT1_22) (MATCH recvT0_48 sendT1_26) (MATCH recvT0_48 sendT1_30) (MATCH recvT0_48 sendT2_16) (MATCH recvT0_48 sendT2_20) (MATCH recvT0_48 sendT2_24) (MATCH recvT0_48 sendT2_28) )
(or (MATCH recvT0_16 sendT1_2) (MATCH recvT0_16 sendT1_6) (MATCH recvT0_16 sendT1_10) (MATCH recvT0_16 sendT1_14) (MATCH recvT0_16 sendT1_18) (MATCH recvT0_16 sendT2_0) (MATCH recvT0_16 sendT2_4) (MATCH recvT0_16 sendT2_8) (MATCH recvT0_16 sendT2_12) (MATCH recvT0_16 sendT2_16) )
(or (MATCH recvT0_43 sendT1_14) (MATCH recvT0_43 sendT1_18) (MATCH recvT0_43 sendT1_22) (MATCH recvT0_43 sendT1_26) (MATCH recvT0_43 sendT1_30) (MATCH recvT0_43 sendT2_12) (MATCH recvT0_43 sendT2_16) (MATCH recvT0_43 sendT2_20) (MATCH recvT0_43 sendT2_24) (MATCH recvT0_43 sendT2_28) )
(or (MATCH recvT0_8 sendT1_2) (MATCH recvT0_8 sendT1_6) (MATCH recvT0_8 sendT1_10) (MATCH recvT0_8 sendT2_0) (MATCH recvT0_8 sendT2_4) (MATCH recvT0_8 sendT2_8) )
(or (MATCH recvT0_11 sendT1_2) (MATCH recvT0_11 sendT1_6) (MATCH recvT0_11 sendT1_10) (MATCH recvT0_11 sendT1_14) (MATCH recvT0_11 sendT2_0) (MATCH recvT0_11 sendT2_4) (MATCH recvT0_11 sendT2_8) (MATCH recvT0_11 sendT2_12) )
(or (MATCH recvT1_16 sendT2_18) )
(or (MATCH recvT0_40 sendT1_10) (MATCH recvT0_40 sendT1_14) (MATCH recvT0_40 sendT1_18) (MATCH recvT0_40 sendT1_22) (MATCH recvT0_40 sendT1_26) (MATCH recvT0_40 sendT1_30) (MATCH recvT0_40 sendT2_8) (MATCH recvT0_40 sendT2_12) (MATCH recvT0_40 sendT2_16) (MATCH recvT0_40 sendT2_20) (MATCH recvT0_40 sendT2_24) (MATCH recvT0_40 sendT2_28) )
(or (MATCH recvT0_3 sendT1_2) (MATCH recvT0_3 sendT1_6) (MATCH recvT0_3 sendT2_0) (MATCH recvT0_3 sendT2_4) )
(or (MATCH recvT1_12 sendT2_14) )
(or (MATCH recvT0_0 sendT1_2) (MATCH recvT0_0 sendT2_0) )
(or (MATCH recvT0_59 sendT1_30) (MATCH recvT0_59 sendT2_28) )
(or (MATCH recvT0_27 sendT1_2) (MATCH recvT0_27 sendT1_6) (MATCH recvT0_27 sendT1_10) (MATCH recvT0_27 sendT1_14) (MATCH recvT0_27 sendT1_18) (MATCH recvT0_27 sendT1_22) (MATCH recvT0_27 sendT1_26) (MATCH recvT0_27 sendT1_30) (MATCH recvT0_27 sendT2_0) (MATCH recvT0_27 sendT2_4) (MATCH recvT0_27 sendT2_8) (MATCH recvT0_27 sendT2_12) (MATCH recvT0_27 sendT2_16) (MATCH recvT0_27 sendT2_20) (MATCH recvT0_27 sendT2_24) (MATCH recvT0_27 sendT2_28) )
(or (MATCH recvT0_56 sendT1_26) (MATCH recvT0_56 sendT1_30) (MATCH recvT0_56 sendT2_24) (MATCH recvT0_56 sendT2_28) )
(or (MATCH recvT0_24 sendT1_2) (MATCH recvT0_24 sendT1_6) (MATCH recvT0_24 sendT1_10) (MATCH recvT0_24 sendT1_14) (MATCH recvT0_24 sendT1_18) (MATCH recvT0_24 sendT1_22) (MATCH recvT0_24 sendT1_26) (MATCH recvT0_24 sendT2_0) (MATCH recvT0_24 sendT2_4) (MATCH recvT0_24 sendT2_8) (MATCH recvT0_24 sendT2_12) (MATCH recvT0_24 sendT2_16) (MATCH recvT0_24 sendT2_20) (MATCH recvT0_24 sendT2_24) )
(or (MATCH recvT1_28 sendT2_30) )
(or (MATCH recvT0_51 sendT1_22) (MATCH recvT0_51 sendT1_26) (MATCH recvT0_51 sendT1_30) (MATCH recvT0_51 sendT2_20) (MATCH recvT0_51 sendT2_24) (MATCH recvT0_51 sendT2_28) )
(or (MATCH recvT1_24 sendT2_26) )
))

(assert (= a_0_0 A_0_0))
(assert (= b_0_0 B_0_0))
(assert (> b_0_0 0))
(assert (= a_0_0 4))
(assert (= a_0_1 A_0_1))
(assert (= b_0_1 B_0_1))
(assert (> b_0_1 0))
(assert (= a_0_1 4))
(assert (= a_0_2 A_0_2))
(assert (= b_0_2 B_0_2))
(assert (> b_0_2 0))
(assert (= a_0_2 4))
(assert (= a_0_3 A_0_3))
(assert (= b_0_3 B_0_3))
(assert (> b_0_3 0))
(assert (= a_0_3 4))
(assert (= a_0_4 A_0_4))
(assert (= b_0_4 B_0_4))
(assert (> b_0_4 0))
(assert (= a_0_4 1))
(assert (= a_0_5 A_0_5))
(assert (= b_0_5 B_0_5))
(assert (> b_0_5 0))
(assert (= a_0_5 1))
(assert (= a_0_6 A_0_6))
(assert (= b_0_6 B_0_6))
(assert (> b_0_6 0))
(assert (= a_0_6 1))
(assert (= a_0_7 A_0_7))
(assert (= b_0_7 B_0_7))
(assert (> b_0_7 0))
(assert (= a_0_7 1))

(check-sat)
